[
    {
        "SB_gecode": {
            "time": 1.0,
            "optimal": true,
            "obj": 12,
            "sol": [
                [
                    3,
                    5,
                    6
                ],
                [
                    2,
                    4
                ],
                [
                    1,
                    7
                ]
            ]
        }
    },
    {
        "gecode": {
            "time": 1.0,
            "optimal": true,
            "obj": 12,
            "sol": [
                [
                    3,
                    5,
                    6
                ],
                [
                    2,
                    4
                ],
                [
                    1,
                    7
                ]
            ]
        }
    },
    {
        "SB_chuffed": {
            "time": 1.0,
            "optimal": true,
            "obj": 12,
            "sol": [
                [
                    3,
                    5,
                    6
                ],
                [
                    2,
                    4
                ],
                [
                    1,
                    7
                ]
            ]
        }
    },
    {
        "chuffed": {
            "time": 1.0,
            "optimal": true,
            "obj": 12,
            "sol": [
                [
                    2,
                    4,
                    5
                ],
                [
                    3,
                    7
                ],
                [
                    1,
                    6
                ]
            ]
        }
    }
]